; Query 0 -- Type: InitialValues, Instructions: 36
(set-option :produce-models true)
(set-logic QF_AUFBV )
(declare-fun s () (Array (_ BitVec 32) (_ BitVec 8) ) )
(assert true )
(check-sat)
(get-value ( (select s (_ bv0 32) ) ) )
(get-value ( (select s (_ bv1 32) ) ) )
(get-value ( (select s (_ bv2 32) ) ) )
(get-value ( (select s (_ bv3 32) ) ) )
(get-value ( (select s (_ bv4 32) ) ) )
(get-value ( (select s (_ bv5 32) ) ) )
(get-value ( (select s (_ bv6 32) ) ) )
(get-value ( (select s (_ bv7 32) ) ) )
(get-value ( (select s (_ bv8 32) ) ) )
(get-value ( (select s (_ bv9 32) ) ) )
(get-value ( (select s (_ bv10 32) ) ) )
(get-value ( (select s (_ bv11 32) ) ) )
(get-value ( (select s (_ bv12 32) ) ) )
(get-value ( (select s (_ bv13 32) ) ) )
(get-value ( (select s (_ bv14 32) ) ) )
(get-value ( (select s (_ bv15 32) ) ) )
(get-value ( (select s (_ bv16 32) ) ) )
(get-value ( (select s (_ bv17 32) ) ) )
(get-value ( (select s (_ bv18 32) ) ) )
(get-value ( (select s (_ bv19 32) ) ) )
(get-value ( (select s (_ bv20 32) ) ) )
(get-value ( (select s (_ bv21 32) ) ) )
(get-value ( (select s (_ bv22 32) ) ) )
(get-value ( (select s (_ bv23 32) ) ) )
(get-value ( (select s (_ bv24 32) ) ) )
(get-value ( (select s (_ bv25 32) ) ) )
(get-value ( (select s (_ bv26 32) ) ) )
(get-value ( (select s (_ bv27 32) ) ) )
(get-value ( (select s (_ bv28 32) ) ) )
(get-value ( (select s (_ bv29 32) ) ) )
(get-value ( (select s (_ bv30 32) ) ) )
(get-value ( (select s (_ bv31 32) ) ) )
(exit)
;   OK -- Elapsed: 2.544000e-06s
;   Solvable: true
;     s = [0,0,0,0,0,0,0,0,0,0,0,0,0,0,0,0,0,0,0,0,0,0,0,0,0,0,0,0,0,0,0,0]

